Route #1: 1 1 44 24 28 18 40 6 1 
Route #2: 1 45 35 36 29 1 
Route #3: 1 49 39 53 21 37 4 30 1 
Route #4: 1 48 50 25 22 13 54 23 1 
Route #5: 1 9 47 16 11 5 10 12 8 1 
Route #6: 1 43 38 2 17 46 26 7 1 
Route #7: 1 52 41 42 14 3 32 1 
Route #8: 1 27 19 31 20 34 33 1 
Route #9: 1 15 51 1 

Cost 1931.61
Time 0.4294


 * Another infos *

 Iterations: 55 Time: 0.4294 sec - 0.0072 min - 0.0001 horas
0.0000 h 0.0072 min
Problem dimension: 55
